db/inputs/86502358738901227822371205281485831135.smt2
(set-logic QF_FP)
(declare-const x0 (_ FloatingPoint 8 24))
(declare-const x1 (_ FloatingPoint 8 24))
(declare-const x2 (_ FloatingPoint 8 24))
(declare-const x3 (_ FloatingPoint 8 24))
(declare-const x4 (_ FloatingPoint 8 24))
(declare-const x5 (_ FloatingPoint 8 24))
(declare-const x6 (_ FloatingPoint 8 24))
(declare-const x7 (_ FloatingPoint 8 24))
(assert (fp.gt (fp.mul RNE (fp.div RNE x5 x4) (fp.mul RNE x5 x6)) (fp.mul RNE (fp.mul RNE x3 x0) (fp.sub RNE x5 x3))))
(assert (fp.gt (fp.div RNE (fp.neg x3) (fp.div RNE x4 x5)) (fp.div RNE (fp.mul RNE x3 x2) (fp.sub RNE x6 x7))))
(assert (fp.gt (fp.add RNE (fp.mul RNE x6 x1) (fp.sub RNE x0 x7)) (fp.sub RNE (fp.add RNE x2 x1) (fp.div RNE x5 x2))))
(assert (fp.lt (fp.add RNE (fp.sub RNE x5 x5) (fp.neg x4)) (fp.mul RNE (fp.div RNE x5 x6) (fp.add RNE x5 x7))))
(assert (fp.lt (fp.neg (fp.neg x6)) (fp.sub RNE (fp.add RNE x2 x0) (fp.mul RNE x1 x3))))
(check-sat)
