db/data/86502358738901227822371205281485831135.z3.out
sat
-------------------
159.205723215
